290
1 0
2 10
3 20
4 30
5 40
6 190
7 200
8 244
9 279
10 39
11 51
12 63
13 75
14 211
15 244
16 278
17 87
18 99
19 111
20 134
21 160
22 256
23 274
24 119
25 129
26 155
27 181
28 206
29 239
30 265
31 51
32 63
33 139
34 149
35 186
36 196
37 224
38 270
39 0
40 13
41 26
42 87
43 100
44 143
45 168
46 230
47 256
48 27
49 38
50 87
51 109
52 148
53 211
54 232
55 278
56 15
57 75
58 109
59 165
60 175
61 223
62 233
63 259
----------
%%%mzn-stat initTime=0.006907
%%%mzn-stat solveTime=180.005
%%%mzn-stat solutions=8
%%%mzn-stat variables=1400
%%%mzn-stat propagators=931
%%%mzn-stat propagations=235680216
%%%mzn-stat nodes=2029487
%%%mzn-stat failures=1014703
%%%mzn-stat restarts=0
%%%mzn-stat peakDepth=78
%%%mzn-stat-end
